width,height
25,25
3,9
4,3
3,1
5,6
2,2
2,8
5,2
4,10
1,9
1,8
2,4
4,2
1,3
5,9
5,8
3,4
1,8
3,7
1,8
2,9
2,4
5,6
3,1
2,1
1,6
1,4
3,7
3,6
3,9
4,5
3,10
1,10
5,9
2,9
4,5
2,7
1,2
5,2
4,10
5,7
5,2
4,9
5,1
2,4
4,2
4,7
3,10
1,3
3,9
3,5
2,1
4,2
2,6
1,10
5,6
4,3
5,6
3,6
3,1
2,1
1,6
5,4
1,4
1,8
5,4
3,5
5,4
5,7
5,4
4,10
2,7
3,9
3,5
3,2
5,7
5,3
1,10
3,1
1,3
4,1
5,8
1,8
4,9
2,2
5,6
4,5
5,2
2,2
1,10
2,7
5,7
4,7
4,5
2,10
1,10
5,1
5,5
1,8
4,8
5,8
